(declare-fun temp5168_1 () (_ BitVec 64))
(declare-fun temp5168_2 () (_ BitVec 64))
(declare-fun var77740 () (_ BitVec 64))
(declare-fun k!0 () Bool)
(declare-fun ARGNAME_input_1_NAMEEND_DIM () (_ BitVec 64))
(declare-fun ARGNAME_data_format_NAMEEND_STRFMT () (_ BitVec 64))
(declare-fun temp5168_3 () (_ BitVec 64))
(declare-fun ARGNAME_input_2_NAMEEND_DIM () (_ BitVec 64))
(declare-fun var77770 () (_ BitVec 64))
(declare-fun temp5168_4 () (_ BitVec 64))
(declare-fun temp5168_5 () (_ BitVec 64))
(declare-fun ARGNAME_input_1_NAMEEND_DIMSIZE
             ()
             (Array (_ BitVec 64) (_ BitVec 64)))
(declare-fun temp5168_6 () (_ BitVec 64))
(declare-fun temp5168_7 () (_ BitVec 64))
(declare-fun temp5168_8 () (_ BitVec 64))
(declare-fun temp5168_9 () (_ BitVec 64))
(declare-fun temp5168_10 () (_ BitVec 64))
(declare-fun temp5168_11 () (_ BitVec 64))
(declare-fun temp5168_12 () (_ BitVec 64))
(declare-fun temp5168_13 () (_ BitVec 64))
(declare-fun temp5168_14 () (_ BitVec 64))
(declare-fun temp5168_15 () (_ BitVec 64))
(declare-fun temp5168_16 () (_ BitVec 64))
(declare-fun temp5168_17 () (_ BitVec 64))
(declare-fun temp5168_18 () (_ BitVec 64))
(declare-fun var77799 () (_ BitVec 64))
(declare-fun temp5168_19 () (_ BitVec 64))
(declare-fun ARGNAME_input_2_NAMEEND_DIMSIZE
             ()
             (Array (_ BitVec 64) (_ BitVec 64)))
(declare-fun temp5168_20 () (_ BitVec 64))
(declare-fun temp5168_21 () (_ BitVec 64))
(declare-fun temp5168_22 () (_ BitVec 64))
(declare-fun temp5168_23 () (_ BitVec 64))
(declare-fun temp5168_24 () (_ BitVec 64))
(declare-fun temp5168_25 () (_ BitVec 64))
(declare-fun temp5168_26 () (_ BitVec 64))
(declare-fun temp5168_27 () (_ BitVec 64))
(declare-fun temp5168_28 () (_ BitVec 64))
(declare-fun temp5168_29 () (_ BitVec 64))
(declare-fun temp5168_30 () (_ BitVec 64))
(declare-fun temp5168_31 () (_ BitVec 64))
(declare-fun temp5168_32 () (_ BitVec 64))
(declare-fun var77832 () (_ BitVec 64))
(declare-fun temp5168_33 () (_ BitVec 64))
(declare-fun temp5168_34 () (_ BitVec 64))
(declare-fun var77833 () (_ BitVec 64))
(declare-fun var77834 () (_ BitVec 64))
(declare-fun temp5168_35 () (_ BitVec 64))
(declare-fun temp5168_36 () (_ BitVec 64))
(declare-fun var275510 () (_ BitVec 64))
(declare-fun temp5168_37 () (_ BitVec 64))
(declare-fun var275528 () (_ BitVec 64))
(declare-fun temp5168_38 () (_ BitVec 64))
(declare-fun temp5168_39 () (_ BitVec 64))
(declare-fun var406582 () (_ BitVec 64))
(declare-fun temp5168_40 () (_ BitVec 64))
(declare-fun var406600 () (_ BitVec 64))
(declare-fun temp5168_41 () (_ BitVec 64))
(declare-fun temp5168_42 () (_ BitVec 64))
(declare-fun var537654 () (_ BitVec 64))
(declare-fun temp5168_43 () (_ BitVec 64))
(declare-fun var537672 () (_ BitVec 64))
(declare-fun temp5168_44 () (_ BitVec 64))
(declare-fun temp5168_46 () (_ BitVec 64))
(declare-fun temp5168_45 () (_ BitVec 64))
(declare-fun temp5168_48 () (_ BitVec 64))
(declare-fun temp5168_47 () (_ BitVec 64))
(declare-fun temp5168_50 () (_ BitVec 64))
(declare-fun temp5168_49 () (_ BitVec 64))
(declare-fun temp5168_52 () (_ BitVec 64))
(declare-fun temp5168_51 () (_ BitVec 64))
(declare-fun temp5168_54 () (_ BitVec 64))
(declare-fun temp5168_53 () (_ BitVec 64))
(declare-fun temp5168_55 () (_ BitVec 64))
(declare-fun var730187 () (_ BitVec 64))
(declare-fun var730166 () (_ BitVec 64))
(declare-fun var664598 () (_ BitVec 64))
(declare-fun temp5168_56 () (_ BitVec 64))
(declare-fun temp5168_57 () (_ BitVec 64))
(declare-fun var795723 () (_ BitVec 64))
(declare-fun var795702 () (_ BitVec 64))
(declare-fun var664608 () (_ BitVec 64))
(declare-fun temp5168_58 () (_ BitVec 64))
(declare-fun temp5168_59 () (_ BitVec 64))
(declare-fun var861259 () (_ BitVec 64))
(declare-fun var861238 () (_ BitVec 64))
(declare-fun var664611 () (_ BitVec 64))
(declare-fun temp5168_60 () (_ BitVec 64))
(declare-fun temp5168_61 () (_ BitVec 64))
(declare-fun var1057842 () (_ BitVec 64))
(declare-fun temp5168_62 () (_ BitVec 64))
(declare-fun var1123378 () (_ BitVec 64))
(declare-fun temp5168_63 () (_ BitVec 64))
(declare-fun var1188914 () (_ BitVec 64))
(declare-fun temp5168_64 () (_ BitVec 64))
(declare-fun var78184 () (_ BitVec 64))
(assert (or (= ARGNAME_data_format_NAMEEND_STRFMT #x0000000000000000)
    (= ARGNAME_data_format_NAMEEND_STRFMT #x0000000000000001)
    (= ARGNAME_data_format_NAMEEND_STRFMT #x0000000000000002)
    (= ARGNAME_data_format_NAMEEND_STRFMT #x0000000000000003)
    (= ARGNAME_data_format_NAMEEND_STRFMT #x0000000000000004)
    (= ARGNAME_data_format_NAMEEND_STRFMT #x0000000000000005)))
(assert (= temp5168_1 #x0000000000000005))
(assert (= var77740
   (ite (= ARGNAME_input_1_NAMEEND_DIM temp5168_1)
        #x0000000000000001
        #x0000000000000000)))
(assert (= temp5168_2 #x0000000000000001))
(assert (= var77740 temp5168_2))
(assert (= temp5168_3 #x0000000000000005))
(assert (= var77770
   (ite (= ARGNAME_input_2_NAMEEND_DIM temp5168_3)
        #x0000000000000001
        #x0000000000000000)))
(assert (= temp5168_4 #x0000000000000001))
(assert (= var77770 temp5168_4))
(assert (= temp5168_5 #x0000000000000000))
(assert (= temp5168_6 (select ARGNAME_input_1_NAMEEND_DIMSIZE temp5168_5)))
(assert (= temp5168_7 #x0000000000000001))
(assert (= temp5168_8 (select ARGNAME_input_1_NAMEEND_DIMSIZE temp5168_7)))
(assert (= temp5168_9 #x0000000000000002))
(assert (= temp5168_10 (select ARGNAME_input_1_NAMEEND_DIMSIZE temp5168_9)))
(assert (= temp5168_11 #x0000000000000003))
(assert (= temp5168_12 (select ARGNAME_input_1_NAMEEND_DIMSIZE temp5168_11)))
(assert (= temp5168_13 #x0000000000000004))
(assert (= temp5168_14 (select ARGNAME_input_1_NAMEEND_DIMSIZE temp5168_13)))
(assert (= temp5168_15 #x0000000000000005))
(assert (= temp5168_16 (select ARGNAME_input_1_NAMEEND_DIMSIZE temp5168_15)))
(assert (= temp5168_17 #x0000000000000003))
(assert (= temp5168_18 (select ARGNAME_input_1_NAMEEND_DIMSIZE temp5168_17)))
(assert (= var77799 temp5168_18))
(assert (= temp5168_19 #x0000000000000000))
(assert (= temp5168_20 (select ARGNAME_input_2_NAMEEND_DIMSIZE temp5168_19)))
(assert (= temp5168_21 #x0000000000000001))
(assert (= temp5168_22 (select ARGNAME_input_2_NAMEEND_DIMSIZE temp5168_21)))
(assert (= temp5168_23 #x0000000000000002))
(assert (= temp5168_24 (select ARGNAME_input_2_NAMEEND_DIMSIZE temp5168_23)))
(assert (= temp5168_25 #x0000000000000003))
(assert (= temp5168_26 (select ARGNAME_input_2_NAMEEND_DIMSIZE temp5168_25)))
(assert (= temp5168_27 #x0000000000000004))
(assert (= temp5168_28 (select ARGNAME_input_2_NAMEEND_DIMSIZE temp5168_27)))
(assert (= temp5168_29 #x0000000000000005))
(assert (= temp5168_30 (select ARGNAME_input_2_NAMEEND_DIMSIZE temp5168_29)))
(assert (= temp5168_31 #x0000000000000004))
(assert (= temp5168_32 (select ARGNAME_input_2_NAMEEND_DIMSIZE temp5168_31)))
(assert (= var77832 temp5168_32))
(assert (= temp5168_33 #x0000000000000004))
(assert (= temp5168_34 (select ARGNAME_input_1_NAMEEND_DIMSIZE temp5168_33)))
(assert (= var77833 temp5168_34))
(assert (= var77834 (ite (= var77832 var77833) #x0000000000000001 #x0000000000000000)))
(assert (= temp5168_35 #x0000000000000001))
(assert (= var77834 temp5168_35))
(assert (= temp5168_36 #x0000000000000001))
(assert (= var275510 temp5168_36))
(assert (= temp5168_37 #x0000000000000001))
(assert (= var275528
   (ite (bvslt var275510 temp5168_37) #x0000000000000001 #x0000000000000000)))
(assert (= temp5168_38 #x0000000000000000))
(assert (= var275528 temp5168_38))
(assert (= temp5168_39 #x0000000000000001))
(assert (= var406582 temp5168_39))
(assert (= temp5168_40 #x0000000000000001))
(assert (= var406600
   (ite (bvslt var406582 temp5168_40) #x0000000000000001 #x0000000000000000)))
(assert (= temp5168_41 #x0000000000000000))
(assert (= var406600 temp5168_41))
(assert (= temp5168_42 #x0000000000000001))
(assert (= var537654 temp5168_42))
(assert (= temp5168_43 #x0000000000000001))
(assert (= var537672
   (ite (bvslt var537654 temp5168_43) #x0000000000000001 #x0000000000000000)))
(assert (= temp5168_44 #x0000000000000000))
(assert (= var537672 temp5168_44))
(assert (= temp5168_46 #x0000000000000000))
(assert (= temp5168_45 temp5168_46))
(assert (= temp5168_48 #x0000000000000000))
(assert (= temp5168_47 temp5168_48))
(assert (= temp5168_50 #x00000000000000ff))
(assert (= temp5168_49 temp5168_50))
(assert (= temp5168_52 #x00000000000000ff))
(assert (= temp5168_51 temp5168_52))
(assert (= temp5168_54 #x00000000000000ff))
(assert (= temp5168_53 temp5168_54))
(assert (= temp5168_55 #x0000000000000000))
(assert (= var730187 temp5168_55))
(assert (= var730166 var730187))
(assert (= var664598 var730166))
(assert (= temp5168_56 #x0000000000000000))
(assert (= var664598 temp5168_56))
(assert (= temp5168_57 #x0000000000000000))
(assert (= var795723 temp5168_57))
(assert (= var795702 var795723))
(assert (= var664608 var795702))
(assert (= temp5168_58 #x0000000000000000))
(assert (= var664608 temp5168_58))
(assert (= temp5168_59 #x0000000000000000))
(assert (= var861259 temp5168_59))
(assert (= var861238 var861259))
(assert (= var664611 var861238))
(assert (= temp5168_60 #x0000000000000000))
(assert (= var664611 temp5168_60))
(assert (= temp5168_61 #x0000000000008000))
(assert (= var1057842 temp5168_61))
(assert (= temp5168_62 #x0000000000040000))
(assert (= var1123378 temp5168_62))
(assert (= temp5168_63 #x0000000000200000))
(assert (= var1188914 temp5168_63))
(assert (= temp5168_64 #x0000000000000001))
(assert (= var78184 temp5168_64))
(model-add temp5168_1 () (_ BitVec 64) #x0000000000000005)
(model-add temp5168_2 () (_ BitVec 64) #x0000000000000001)
(model-add var77740 () (_ BitVec 64) #x0000000000000001)
(model-del k!0)
(model-add ARGNAME_input_1_NAMEEND_DIM
           ()
           (_ BitVec 64)
           (ite k!0 #x0000000000000005 (bvnot #x0000000000000005)))

